
--- Job bchfcnet.gms Start 02/09/22 15:12:46 34.3.0 rac355f3 WEX-WEI x86 64bit/MS Windows
--- Applying:
    C:\GAMS\34\gmsprmNT.txt
--- GAMS Parameters defined
    Input C:\Users\dekhi\Desktop\gamsworld\FCNetLib\test\bchfcnet.gms
    PageSize 0
    ScrDir C:\Users\dekhi\Desktop\gamsworld\FCNetLib\test\225a\
    SysDir C:\GAMS\34\
    LogOption 3
    ErrMsg 1
    ErrorLog 99
    IDE 1
    ResLim 3600
    LstTitleLeftAligned 1
Licensee: Eval License                                   S211214|0002AW-GEN
          Ostfalia Hochschule fuer angewandte Wissenschaften        DCE1645
          C:\Users\dekhi\Documents\GAMS\gamslice.txt
          License Admin: Mohamed Ali Dekhil, dekhil.medali@gmail.com       
          Evaluation license: Not for commercial or production use
GAMS 34.3.0   Copyright (C) 1987-2021 GAMS Development. All rights reserved
--- Starting compilation
--- bchfcnet.gms(34) 2 Mb
--- . decl.gms(15) 2 Mb
--- bchfcnet.gms(38) 2 Mb
--- . sp150x300d.inc(673) 3 Mb
--- bchfcnet.gms(67) 3 Mb
--- . equs.gms(20) 3 Mb
--- bchfcnet.gms(97) 3 Mb
--- call rm -f bchout_i.gdx startcut.txt startheur.txt cuthist.gdx agap.txt rgap.txt cntfail.txt
--- bchfcnet.gms(118) 3 Mb
--- Starting execution: elapsed 0:00:00.097
--- bchfcnet.gms(731) 4 Mb
--- GDX File (execute_unload) C:\Users\dekhi\Desktop\gamsworld\FCNetLib\test\net.gdx
--- bchfcnet.gms(822) 4 Mb
--- GDXin=C:\Users\dekhi\Desktop\gamsworld\FCNetLib\test\points\sp150x300d.gdx
--- GDX File (execute_load) C:\Users\dekhi\Desktop\gamsworld\FCNetLib\test\points\sp150x300d.gdx
--- Generating MIP model master
--- bchfcnet.gms(826) 4 Mb
---   451 rows  601 columns  1,501 non-zeroes
---   300 discrete-columns
--- Executing CPLEX (Solvelink=2): elapsed 0:00:00.113

IBM ILOG CPLEX   34.3.0 rac355f3 Released Feb 25, 2021 WEI x86 64bit/MS Window

--- GAMS/Cplex Link licensed for continuous and discrete problems.

Reading parameter(s) from "C:\Users\dekhi\Desktop\gamsworld\FCNetLib\test\cplex.op2"
>>  mipstart 1
Finished reading from "C:\Users\dekhi\Desktop\gamsworld\FCNetLib\test\cplex.op2"

--- Space for names approximately 0.02 Mb
--- Use option 'names no' to turn use of names off
--- GMO memory 0.62 Mb (peak 0.63 Mb)
--- Dictionary memory 0.00 Mb
--- Cplex 20.1.0.0 link memory 0.02 Mb (peak 0.07 Mb)
--- Starting Cplex

Version identifier: 20.1.0.0 | 2020-11-10 | 9bedb6d68
CPXPARAM_Threads                                 1
CPXPARAM_MIP_Display                             4
CPXPARAM_TimeLimit                               3600
CPXPARAM_MIP_Tolerances_AbsMIPGap                0
CPXPARAM_MIP_Tolerances_MIPGap                   0
Generic callback                                 0x50
Processing 1 MIP starts.
MIP start 'm1' defined solution with objective 69.0000.
1 of 1 MIP starts provided solutions.
MIP start 'm1' defined initial solution with objective 69.0000.
Tried aggregator 3 times.
MIP Presolve eliminated 90 rows and 30 columns.
MIP Presolve added 4 rows and 0 columns.
MIP Presolve modified 128 coefficients.
Aggregator did 92 substitutions.
Reduced MIP has 272 rows, 420 columns, and 849 nonzeros.
Reduced MIP has 212 binaries, 0 generals, 0 SOSs, and 0 indicators.
Presolve time = 0.00 sec. (2.64 ticks)
Probing time = 0.00 sec. (0.05 ticks)
Tried aggregator 1 time.
Detecting symmetries...
MIP Presolve modified 3 coefficients.
Reduced MIP has 272 rows, 420 columns, and 849 nonzeros.
Reduced MIP has 212 binaries, 0 generals, 0 SOSs, and 0 indicators.
Presolve time = 0.00 sec. (1.10 ticks)
Probing time = 0.00 sec. (0.05 ticks)
Clique table members: 3.
MIP emphasis: balance optimality and feasibility.
MIP search method: dynamic search.
Parallel mode: none, using 1 thread.
Tried aggregator 1 time.
LP Presolve eliminated 205 rows and 308 columns.
Aggregator did 35 substitutions.
Reduced LP has 32 rows, 77 columns, and 158 nonzeros.
Presolve time = 0.00 sec. (0.25 ticks)
Initializing dual steep norms . . .

Iteration log . . .
Iteration:     1   Dual objective     =            31.032354
Initializing dual steep norms . . .
Root relaxation solution time = 0.00 sec. (0.44 ticks)

        Nodes                                         Cuts/
   Node  Left     Objective  IInf  Best Integer    Best Bound    ItCnt     Gap

*     0+    0                           69.0000       29.0000            57.97%
Found incumbent of value 69.000000 after 0.01 sec. (4.95 ticks)
      0     0       34.5509    42       69.0000       34.5509       26   49.93%
      0     0       51.0653    46       69.0000     Cuts: 146       83   25.99%
      0     0       60.5937    33       69.0000     Cuts: 115      133   12.18%
      0     0       63.0414    33       69.0000      Cuts: 86      171    8.64%
      0     0       65.2615    30       69.0000     Cuts: 101      206    5.42%
      0     0       66.3197    22       69.0000      Cuts: 35      230    3.88%
      0     0       66.3623    20       69.0000      Cuts: 36      253    3.82%
      0     0       66.7150    13       69.0000      Cuts: 22      264    3.31%
      0     0       66.7150    14       69.0000       Cuts: 8      265    3.31%
      0     0       66.8188    10       69.0000       Cuts: 3      292    3.16%
      0     0       67.0003    11       69.0000      Cuts: 38      303    2.90%

Repeating presolve.
Tried aggregator 2 times.
MIP Presolve eliminated 132 rows and 213 columns.
MIP Presolve modified 57 coefficients.
Aggregator did 10 substitutions.
Reduced MIP has 130 rows, 196 columns, and 398 nonzeros.
Reduced MIP has 93 binaries, 0 generals, 0 SOSs, and 0 indicators.
Presolve time = 0.00 sec. (1.48 ticks)
Probing fixed 4 vars, tightened 0 bounds.
Probing time = 0.00 sec. (0.04 ticks)
Tried aggregator 1 time.
MIP Presolve eliminated 4 rows and 10 columns.
Reduced MIP has 126 rows, 186 columns, and 385 nonzeros.
Reduced MIP has 86 binaries, 0 generals, 0 SOSs, and 0 indicators.
Presolve time = 0.02 sec. (0.25 ticks)
Probing time = 0.00 sec. (0.03 ticks)
Tried aggregator 1 time.
Detecting symmetries...
Reduced MIP has 126 rows, 186 columns, and 385 nonzeros.
Reduced MIP has 86 binaries, 0 generals, 0 SOSs, and 0 indicators.
Presolve time = 0.00 sec. (0.37 ticks)
Represolve time = 0.02 sec. (4.64 ticks)
Probing time = 0.00 sec. (0.03 ticks)
Clique table members: 3.
MIP emphasis: balance optimality and feasibility.
MIP search method: dynamic search.
Parallel mode: none, using 1 thread.
Tried aggregator 1 time.
LP Presolve eliminated 6 rows and 9 columns.
Aggregator did 2 substitutions.
Reduced LP has 195 rows, 175 columns, and 923 nonzeros.
Presolve time = 0.00 sec. (0.15 ticks)
Initializing dual steep norms . . .

Iteration log . . .
Iteration:     1   Dual objective     =            51.000000
Iteration:    62   Dual objective     =            67.000328
Initializing dual steep norms . . .
Root relaxation solution time = 0.00 sec. (0.69 ticks)

        Nodes                                         Cuts/
   Node  Left     Objective  IInf  Best Integer    Best Bound    ItCnt     Gap

*     0+    0                           69.0000       67.0003             2.90%
Found incumbent of value 69.000000 after 0.16 sec. (90.45 ticks)
      0     0       67.0003    12       69.0000       67.0003      379    2.90%
      0     0       67.5000     6       69.0000   Flowcuts: 1      380    2.17%
      0     0        cutoff             69.0000                    396    0.00%
Elapsed time = 0.16 sec. (95.78 ticks, tree = 0.01 MB, solutions = 1)

Cover cuts applied:  11
Flow cuts applied:  21
Mixed integer rounding cuts applied:  6
Flow path cuts applied:  2
Lift and project cuts applied:  1
Gomory fractional cuts applied:  19

Root node processing (before b&c):
  Real time             =    0.16 sec. (95.80 ticks)
Sequential b&c:
  Real time             =    0.00 sec. (0.00 ticks)
                          ------------
Total (root+branch&cut) =    0.16 sec. (95.80 ticks)

--- MIP status (101): integer optimal solution.
--- Cplex Time: 0.16sec (det. 95.80 ticks)

--- Fixing integer variables and solving final LP...

Version identifier: 20.1.0.0 | 2020-11-10 | 9bedb6d68
CPXPARAM_Advance                                 2
CPXPARAM_Threads                                 1
CPXPARAM_MIP_Display                             4
CPXPARAM_TimeLimit                               3600
CPXPARAM_MIP_Tolerances_AbsMIPGap                0
CPXPARAM_MIP_Tolerances_MIPGap                   0
Tried aggregator 1 time.
LP Presolve eliminated 450 rows and 601 columns.
All rows and columns eliminated.
Presolve time = 0.00 sec. (0.23 ticks)

--- Fixed MIP status (1): optimal.
--- Cplex Time: 0.01sec (det. 0.41 ticks)


Proven optimal solution
MIP Solution:           69.000000    (396 iterations, 0 nodes)
Final Solve:            69.000000    (0 iterations)

Best possible:          69.000000
Absolute gap:            0.000000
Relative gap:            0.000000

--- Reading solution for model master
*** Status: Normal completion
--- Job bchfcnet.gms Stop 02/09/22 15:12:46 elapsed 0:00:00.318
